start=1;

limit = 6;

n = 20;

m=[|-1,-1,-1,-1,-1,-1,5,-1,8,15,18,11,-1,20,11,-1,19,5,18,17,
|11,-1,-1,20,13,2,7,-1,17,12,5,17,-1,10,17,19,4,0,12,-1,
|0,-1,-1,20,-1,-1,-1,20,-1,18,15,-1,-1,-1,-1,-1,-1,-1,1,17,
|17,13,12,-1,5,-1,-1,20,-1,10,3,-1,-1,17,-1,-1,18,-1,8,18,
|-1,14,7,14,-1,16,18,-1,5,-1,19,-1,-1,4,-1,-1,-1,-1,-1,6,
|11,6,-1,8,13,-1,-1,12,-1,16,9,9,-1,17,-1,2,-1,12,-1,19,
|2,-1,-1,8,-1,-1,-1,14,1,-1,10,17,-1,-1,4,12,-1,9,-1,18,
|8,17,-1,-1,-1,-1,-1,-1,19,10,-1,14,-1,0,1,-1,0,17,0,16,
|1,-1,15,8,-1,-1,6,15,-1,-1,-1,-1,-1,-1,15,8,-1,-1,-1,-1,
|12,-1,-1,0,-1,10,2,4,11,-1,19,-1,13,1,7,-1,-1,-1,-1,9,
|-1,-1,15,20,17,12,18,8,-1,2,-1,8,13,-1,6,-1,-1,2,20,14,
|16,20,-1,-1,-1,5,-1,-1,-1,6,-1,-1,-1,-1,18,-1,17,-1,-1,5,
|-1,6,-1,9,9,9,0,11,9,-1,-1,1,-1,10,-1,2,15,-1,3,9,
|11,14,1,6,16,17,-1,-1,-1,18,-1,-1,20,-1,-1,13,-1,5,13,8,
|1,2,18,1,13,11,8,7,-1,-1,-1,3,6,12,-1,19,6,14,-1,14,
|-1,5,7,-1,19,-1,-1,-1,-1,14,6,-1,-1,18,-1,-1,6,10,-1,-1,
|-1,9,-1,3,-1,7,4,-1,-1,-1,-1,7,-1,6,-1,-1,-1,-1,7,-1,
|3,12,-1,-1,-1,15,16,-1,18,17,1,15,13,-1,13,13,10,-1,-1,0,
|-1,-1,-1,-1,-1,-1,16,0,3,15,13,8,8,2,-1,-1,17,9,-1,13,
|-1,-1,4,6,12,-1,0,3,19,-1,-1,-1,-1,-1,-1,-1,-1,0,-1,-1,
|];